Height = 16;
Width = 16;
Height = 7;

Width = 7;
 
 grid =  [| -3, -3, -3, -3, -3, -3, -3
          | -3, -3, -3, -3, -3, -3, -3
          | -3, -3, -3, -3, -3, -3, -3
          | -3, -3, -1, -5, -1, -1, -1
          | -3, -3, -1, -3,  1,  1,  1
          | -3, -3, -1,  1,  0,  0,  0
          | -3, -3, -1,  1,  0,  0,  0|];